Running for instance ./models/r106.txt
Generating routes...
Execution time:  4.26505103333  minutes
Academic license - for non-commercial use only
Warning: constraint name "Cliente esta na rota" has a space
Optimize a model with 26 rows, 5000 columns and 31119 nonzeros
Variable types: 0 continuous, 5000 integer (0 binary)
Coefficient statistics:
  Matrix range     [1e+00, 1e+00]
  Objective range  [5e+01, 2e+02]
  Bounds range     [1e+00, 1e+00]
  RHS range        [1e+00, 2e+01]
Found heuristic solution: objective 1295.9174145
Presolve removed 0 rows and 2471 columns
Presolve time: 0.04s
Presolved: 26 rows, 2529 columns, 15824 nonzeros
Found heuristic solution: objective 865.7364737
Variable types: 0 continuous, 2529 integer (2529 binary)

Root relaxation: objective 5.714906e+02, 78 iterations, 0.00 seconds

    Nodes    |    Current Node    |     Objective Bounds      |     Work
 Expl Unexpl |  Obj  Depth IntInf | Incumbent    BestBd   Gap | It/Node Time

*    0     0               0     571.4906482  571.49065  0.00%     -    0s

Explored 0 nodes (78 simplex iterations) in 0.05 seconds
Thread count was 8 (of 8 available processors)

Solution count 2: 571.491 865.736 

Optimal solution found (tolerance 1.00e-04)
Best objective 5.714906481753e+02, best bound 5.714906481753e+02, gap 0.0000%
9
18 8
7 11 19 10 1
2 14 15
21 23 22 4 25
5 16 6 12 24
Distance: 571.490648175
Execution time:  4.27345988333  minutes
